c Generated map
c Size: 9 * 9, weights in range: 1 to 10, walls: True, with ratio 0.1
c dim 1 of 8
c
p sp 81 116
c graph contains 81 nodes and 116 arcs
c
a 1 10 7
a 10 1 7
a 1 2 3
a 2 1 3
a 2 11 3
a 11 2 3
a 2 3 1
a 3 2 1
a 3 12 10
a 12 3 10
a 3 4 4
a 4 3 4
a 4 13 6
a 13 4 6
a 4 5 1
a 5 4 1
a 5 14 6
a 14 5 6
a 5 6 9
a 6 5 9
a 6 15 5
a 15 6 5
a 6 7 1
a 7 6 1
a 7 8 10
a 8 7 10
a 8 17 2
a 17 8 2
a 8 9 2
a 9 8 2
a 9 18 3
a 18 9 3
a 10 19 2
a 19 10 2
a 10 11 2
a 11 10 2
a 11 20 10
a 20 11 10
a 11 12 9
a 12 11 9
a 12 21 1
a 21 12 1
a 12 13 4
a 13 12 4
a 13 14 9
a 14 13 9
a 14 23 1
a 23 14 1
a 14 15 5
a 15 14 5
a 15 24 8
a 24 15 8
a 17 18 1
a 18 17 1
a 18 27 1
a 27 18 1
a 19 28 2
a 28 19 2
a 19 20 2
a 20 19 2
a 20 29 4
a 29 20 4
a 20 21 3
a 21 20 3
a 21 30 3
a 30 21 3
a 23 32 10
a 32 23 10
a 23 24 1
a 24 23 1
a 24 33 4
a 33 24 4
a 27 36 8
a 36 27 8
a 28 37 10
a 37 28 10
a 28 29 5
a 29 28 5
a 29 38 10
a 38 29 10
a 29 30 7
a 30 29 7
a 30 39 4
a 39 30 4
a 30 31 5
a 31 30 5
a 31 40 9
a 40 31 9
a 31 32 10
a 32 31 10
a 32 41 6
a 41 32 6
a 32 33 9
a 33 32 9
a 33 42 5
a 42 33 5
a 33 34 9
a 34 33 9
a 34 43 7
a 43 34 7
a 36 45 4
a 45 36 4
a 37 46 3
a 46 37 3
a 37 38 8
a 38 37 8
a 38 47 2
a 47 38 2
a 38 39 9
a 39 38 9
a 39 48 9
a 48 39 9
a 39 40 1
a 40 39 1
a 40 49 4
a 49 40 4
a 40 41 9
a 41 40 9
a 41 50 5
a 50 41 5
a 41 42 1
a 42 41 1
a 42 51 8
a 51 42 8
a 42 43 9
a 43 42 9
a 43 52 8
a 52 43 8
a 43 44 10
a 44 43 10
a 44 53 7
a 53 44 7
a 44 45 1
a 45 44 1
a 45 54 8
a 54 45 8
a 46 55 4
a 55 46 4
a 46 47 3
a 47 46 3
a 47 56 6
a 56 47 6
a 47 48 5
a 48 47 5
a 48 57 2
a 57 48 2
a 48 49 5
a 49 48 5
a 49 58 8
a 58 49 8
a 49 50 4
a 50 49 4
a 50 59 3
a 59 50 3
a 50 51 1
a 51 50 1
a 51 60 9
a 60 51 9
a 51 52 9
a 52 51 9
a 52 61 5
a 61 52 5
a 52 53 1
a 53 52 1
a 53 62 3
a 62 53 3
a 53 54 3
a 54 53 3
a 54 63 10
a 63 54 10
a 55 64 2
a 64 55 2
a 55 56 4
a 56 55 4
a 56 57 2
a 57 56 2
a 57 66 8
a 66 57 8
a 57 58 3
a 58 57 3
a 58 67 10
a 67 58 10
a 58 59 9
a 59 58 9
a 59 68 2
a 68 59 2
a 59 60 10
a 60 59 10
a 60 69 10
a 69 60 10
a 60 61 2
a 61 60 2
a 61 70 5
a 70 61 5
a 61 62 7
a 62 61 7
a 62 63 3
a 63 62 3
a 63 72 1
a 72 63 1
a 64 73 1
a 73 64 1
a 66 75 6
a 75 66 6
a 66 67 8
a 67 66 8
a 67 76 4
a 76 67 4
a 67 68 10
a 68 67 10
a 68 77 7
a 77 68 7
a 68 69 1
a 69 68 1
a 69 70 10
a 70 69 10
a 70 79 4
a 79 70 4
a 72 81 1
a 81 72 1
a 73 74 6
a 74 73 6
a 74 75 3
a 75 74 3
a 75 76 9
a 76 75 9
a 76 77 8
a 77 76 8
a 79 80 10
a 80 79 10
a 80 81 3
a 81 80 3
